70 65 96 91 62 77 51 87 19 79 88 86 33 99 4 7 29 17 20 53 24 75 83 21 0 1 71 41 12 35 74 81 59 93 82 67 13 92 80 98 94 6 72 16 76 45 26 14 40 97 3 9 68 50 27 89 52 64 73 34 49 69 44 5 32 8 23 48 10 63 43 60 30 31 84 28 46 22 85 25 36 58 18 66 38 2 37 15 56 54 55 78 95 90 57 11 42 39 47 61 

